************************************************************************
file with basedata            : md364_.bas
initial value random generator: 650515592
************************************************************************
projects                      :  1
jobs (incl. supersource/sink ):  22
horizon                       :  175
RESOURCES
  - renewable                 :  2   R
  - nonrenewable              :  2   N
  - doubly constrained        :  0   D
************************************************************************
PROJECT INFORMATION:
pronr.  #jobs rel.date duedate tardcost  MPM-Time
    1     20      0       22        9       22
************************************************************************
PRECEDENCE RELATIONS:
jobnr.    #modes  #successors   successors
   1        1          3           2   3   4
   2        3          3          10  11  15
   3        3          2           7   8
   4        3          3           5   6  10
   5        3          2           9  17
   6        3          3          12  13  16
   7        3          1          13
   8        3          1           9
   9        3          2          12  16
  10        3          3          14  16  17
  11        3          1          14
  12        3          3          15  18  21
  13        3          2          15  17
  14        3          1          20
  15        3          2          19  20
  16        3          1          19
  17        3          3          18  20  21
  18        3          1          19
  19        3          1          22
  20        3          1          22
  21        3          1          22
  22        1          0        
************************************************************************
REQUESTS/DURATIONS:
jobnr. mode duration  R 1  R 2  N 1  N 2
------------------------------------------------------------------------
  1      1     0       0    0    0    0
  2      1     2       5    0    5    3
         2     6       0    9    4    2
         3     6       5    0    5    2
  3      1     1       5    0    8    9
         2     8       4    0    8    9
         3    10       4    0    8    8
  4      1     2       0    1   10    7
         2     9       6    0    9    7
         3    10       4    0    9    7
  5      1     6       0    8    7    8
         2     8       0    7    4    8
         3     9       0    5    2    7
  6      1     2       0    3    7    4
         2     7       7    0    6    3
         3     8       6    0    5    3
  7      1     7       7    0    9    4
         2     9       3    0    9    1
         3     9       0    6    9    2
  8      1     1       0    7    7    7
         2     3       0    7    6    4
         3     6       7    0    6    4
  9      1     1       8    0    3   10
         2     6       7    0    3    7
         3    10       7    0    2    2
 10      1     2       7    0    7    9
         2     7       6    0    4    9
         3    10       0    7    1    9
 11      1     2       4    0    7    3
         2     4       3    0    7    3
         3    10       0    6    4    2
 12      1     5       9    0    9    3
         2     5       0    8    7    3
         3    10       0    4    5    2
 13      1     5       4    0    8    7
         2    10       4    0    8    4
         3    10       3    0    8    7
 14      1     1       8    0    7    9
         2     5       7    0    6    6
         3     7       7    0    4    1
 15      1     4       0    7    8    8
         2     6       0    6    7    8
         3    10       0    3    7    7
 16      1     6       9    0    7    5
         2     6       0    7    7    6
         3     7       9    0    5    1
 17      1     2       8    0    7    4
         2     4       0    5    6    3
         3     9       5    0    1    3
 18      1     3       5    0    8    6
         2     4       4    0    6    3
         3     9       2    0    5    3
 19      1     4       4    0   10    8
         2     8       0    8    4    8
         3     8       0    9    4    7
 20      1     2       0    5    5    7
         2     6       0    4    5    4
         3     7       6    0    2    4
 21      1     2       7    0    8    7
         2     9       0    7    7    3
         3    10       6    0    7    3
 22      1     0       0    0    0    0
************************************************************************
RESOURCEAVAILABILITIES:
  R 1  R 2  N 1  N 2
   25   27  123  105
************************************************************************
MAXIMAL LAGS:
from  to  type  delay
    1   22   ES      0
    1    2   ES      0
    2   22   ES      0
    1    3   ES      0
    3   22   ES      0
    1    4   ES      0
    4   22   ES      0
    1    5   ES      0
    5   22   ES      0
    1    6   ES      0
    6   22   ES      0
    1    7   ES      0
    7   22   ES      0
    1    8   ES      0
    8   22   ES      0
    1    9   ES      0
    9   22   ES      0
    1   10   ES      0
   10   22   ES      0
    1   11   ES      0
   11   22   ES      0
    1   12   ES      0
   12   22   ES      0
    1   13   ES      0
   13   22   ES      0
    1   14   ES      0
   14   22   ES      0
    1   15   ES      0
   15   22   ES      0
    1   16   ES      0
   16   22   ES      0
    1   17   ES      0
   17   22   ES      0
    1   18   ES      0
   18   22   ES      0
    1   19   ES      0
   19   22   ES      0
    1   20   ES      0
   20   22   ES      0
    1   21   ES      0
   21   22   ES      0
    1   22   ES      0
    2   10   SS     -3
    2   10   SE     -1
    2   10   ES     10
    2   10   EE     -1
    2   11   SS     -3
    2   11   SE     -3
    2   11   ES     11
    2   11   EE     10
    2   15   SS     -8
    2   15   SE     -9
    2   15   ES     -1
    2   15   EE      3
    3    7   SS      9
    3    7   SE     10
    3    7   ES      5
    3    7   EE     -5
    3    8   SS      2
    3    8   SE      7
    3    8   ES      9
    3    8   EE     -7
    4    5   SS      1
    4    5   SE     -3
    4    5   ES    -12
    4    5   EE     -2
    4    6   SS     -6
    4    6   SE     10
    4    6   ES     -8
    4    6   EE      8
    4   10   SS      2
    4   10   SE     -6
    4   10   ES      8
    4   10   EE      7
    5    9   SS      1
    5    9   SE      4
    5    9   ES      4
    5    9   EE     -1
    5   17   SS      7
    5   17   SE     -6
    5   17   ES     -4
    5   17   EE     11
    6   12   SS     -8
    6   12   SE      4
    6   12   ES      5
    6   12   EE     -6
    6   13   SS      8
    6   13   SE      6
    6   13   ES    -11
    6   13   EE     -5
    6   16   SS      7
    6   16   SE      2
    6   16   ES      7
    6   16   EE      7
    7   13   SS      2
    7   13   SE      9
    7   13   ES      9
    7   13   EE      4
    8    9   SS     -6
    8    9   SE      9
    8    9   ES     -6
    8    9   EE    -10
    9   12   SS     10
    9   12   SE     -1
    9   12   ES    -12
    9   12   EE     -5
    9   16   SS     -7
    9   16   SE     -9
    9   16   ES      7
    9   16   EE      4
   10   14   SS     -1
   10   14   SE     12
   10   14   ES      6
   10   14   EE      9
   10   16   SS      1
   10   16   SE     -1
   10   16   ES     -1
   10   16   EE     12
   10   17   SS    -10
   10   17   SE      9
   10   17   ES      9
   10   17   EE     11
   11   14   SS    -12
   11   14   SE     -8
   11   14   ES     -2
   11   14   EE    -12
   12   15   SS      0
   12   15   SE      1
   12   15   ES      1
   12   15   EE     11
   12   18   SS      8
   12   18   SE      4
   18   12   SE      0
   12   18   ES      0
   12   18   EE      8
   12   21   SS      9
   12   21   SE     12
   12   21   ES    -11
   12   21   EE      0
   13   15   SS      8
   13   15   SE      2
   13   15   ES     -5
   13   15   EE     -3
   13   17   SS      3
   13   17   SE      1
   13   17   ES      3
   13   17   EE    -10
   14   20   SS     -3
   14   20   SE      6
   14   20   ES      6
   14   20   EE      9
   15   19   SS      5
   15   19   SE      1
   15   19   ES     -5
   15   19   EE     -8
   15   20   SS      5
   15   20   SE      6
   15   20   ES     -1
   15   20   EE     11
   16   19   SS      7
   16   19   SE    -10
   16   19   ES     11
   16   19   EE    -12
   17   18   SS     -5
   17   18   SE      4
   17   18   ES     -2
   17   18   EE     -7
   17   20   SS     -3
   17   20   SE     -8
   17   20   ES      3
   17   20   EE      0
   17   21   SS     -7
   17   21   SE     -8
   17   21   ES     -9
   17   21   EE     -2
   18   19   SS     -1
   18   19   SE      6
   18   19   ES     12
   18   19   EE      0
************************************************************************
